
******************************************************************************
This program contains Ipopt, a library for large-scale nonlinear optimization.
 Ipopt is released as open source code under the Eclipse Public License (EPL).
         For more information visit http://projects.coin-or.org/Ipopt

This version of Ipopt was compiled from source code available at
    https://github.com/IDAES/Ipopt as part of the Institute for the Design of
    Advanced Energy Systems Process Systems Engineering Framework (IDAES PSE
    Framework) Copyright (c) 2018-2019. See https://github.com/IDAES/idaes-pse.

This version of Ipopt was compiled using HSL, a collection of Fortran codes
    for large-scale scientific computation.  All technical papers, sales and
    publicity material resulting from use of the HSL codes within IPOPT must
    contain the following acknowledgement:
        HSL, a collection of Fortran codes for large-scale scientific
        computation. See http://www.hsl.rl.ac.uk.
******************************************************************************

This is Ipopt version 3.13.2, running with linear solver ma27.

Number of nonzeros in equality constraint Jacobian...:      928
Number of nonzeros in inequality constraint Jacobian.:        0
Number of nonzeros in Lagrangian Hessian.............:      806

Total number of variables............................:      403
                     variables with only lower bounds:      124
                variables with lower and upper bounds:      217
                     variables with only upper bounds:        0
Total number of equality constraints.................:      402
Total number of inequality constraints...............:        0
        inequality constraints with only lower bounds:        0
   inequality constraints with lower and upper bounds:        0
        inequality constraints with only upper bounds:        0

iter    objective    inf_pr   inf_du lg(mu)  ||d||  lg(rg) alpha_du alpha_pr  ls
   0  0.0000000e+00 1.17e+00 2.22e-16  -1.0 0.00e+00    -  0.00e+00 0.00e+00   0
   1  1.3099904e-01 1.05e+00 8.09e+04  -1.0 1.99e+05    -  2.77e-01 1.15e-01h  1
   2  1.6497258e-01 1.03e+00 8.11e+04  -1.0 2.32e+05    -  4.85e-01 1.50e-02h  1
   3  1.7879504e+01 3.24e-01 7.96e+04  -1.0 2.33e+05    -  4.90e-01 9.90e-01h  1
   4  2.3012658e+01 4.61e-02 1.88e+03  -1.0 3.40e+04    -  7.66e-01 9.90e-01h  1
   5  2.3156642e+01 1.48e-03 6.27e+02  -1.0 1.37e+03    -  9.85e-01 9.90e-01h  1
   6  2.3165481e+01 1.59e-05 1.77e+01  -1.0 1.11e+02    -  9.90e-01 9.90e-01h  1
   7  2.3167853e+01 1.56e-05 1.12e+09  -1.0 2.27e+03    -  9.90e-01 1.55e-02h  7
   8  2.3169321e+01 1.55e-05 2.25e+09  -1.0 2.81e+03    -  9.91e-01 7.73e-03h  8
   9  2.3170800e+01 1.54e-05 3.40e+09  -1.0 2.83e+03    -  1.00e+00 7.73e-03h  8
iter    objective    inf_pr   inf_du lg(mu)  ||d||  lg(rg) alpha_du alpha_pr  ls
  10  2.3172265e+01 1.53e-05 4.55e+09  -1.0 2.80e+03    -  1.00e+00 7.73e-03h  8
  11  2.3173714e+01 1.51e-05 5.70e+09  -1.0 2.77e+03    -  1.00e+00 7.73e-03h  8
  12  2.3175148e+01 1.50e-05 6.85e+09  -1.0 2.74e+03    -  1.00e+00 7.73e-03h  8
  13  2.3176567e+01 1.49e-05 8.00e+09  -1.0 2.71e+03    -  1.00e+00 7.73e-03h  8
  14  2.3177971e+01 1.48e-05 9.14e+09  -1.0 2.68e+03    -  1.00e+00 7.73e-03h  8
  15  2.3179360e+01 1.47e-05 1.03e+10  -1.0 2.65e+03    -  1.00e+00 7.73e-03h  8
  16  2.3180734e+01 1.46e-05 1.14e+10  -1.0 2.63e+03    -  1.00e+00 7.73e-03h  8
  17  2.3355569e+01 1.78e-03 1.27e+08  -1.0 2.60e+03    -  1.00e+00 9.90e-01w  1
  18  2.3341231e+01 2.82e-05 1.25e+09  -1.0 2.10e+02    -  1.00e+00 9.90e-01h  1
  19  2.3341486e+01 2.95e-07 1.25e+11  -1.0 3.82e+00    -  1.00e+00 9.90e-01h  1
In iteration 19, 31 Slacks too small, adjusting variable bounds
iter    objective    inf_pr   inf_du lg(mu)  ||d||  lg(rg) alpha_du alpha_pr  ls
  20  2.3341488e+01 2.96e-09 1.25e+13  -1.0 3.36e-02    -  1.00e+00 9.90e-01h  1
  21  2.3341488e+01 3.45e-12 1.23e-01  -1.0 3.35e-04    -  1.00e+00 1.00e+00h  1
  22  2.3341312e+01 8.13e-10 1.24e+13  -9.0 4.56e+03    -  9.72e-01 5.69e-04f 11
  23  2.3341135e+01 1.63e-09 1.27e+13  -9.0 2.81e+03    -  9.95e-01 9.20e-04f 11
  24  2.3340959e+01 2.44e-09 1.27e+13  -9.0 2.66e+03    -  9.96e-01 9.71e-04f 11
  25  2.3340871e+01 2.64e-09 1.27e+13  -9.0 2.65e+03    -  1.00e+00 4.88e-04f 12
  26  2.3340827e+01 2.69e-09 1.27e+13  -9.0 2.65e+03    -  1.00e+00 2.44e-04f 13
  27  2.3161490e+01 2.86e-03 2.25e+08  -9.0 2.65e+03    -  1.00e+00 1.00e+00f  1
  28  2.3158024e+01 5.91e-08 3.61e-02  -9.0 4.88e+01    -  1.00e+00 1.00e+00h  1
  29  2.3158024e+01 3.68e-12 1.81e-10  -9.0 1.54e-03    -  1.00e+00 1.00e+00h  1

Number of Iterations....: 29

                                   (scaled)                 (unscaled)
Objective...............:   2.3158023839670314e+01    2.3158023839670314e+01
Dual infeasibility......:   1.8124906837212374e-10    1.8124906837212374e-10
Constraint violation....:   3.6761704791388183e-12    3.6761704791388183e-12
Complementarity.........:   9.0909139330276158e-10    9.0909139330276158e-10
Overall NLP error.......:   1.4248770116119616e-11    9.0909139330276158e-10


Number of objective function evaluations             = 210
Number of objective gradient evaluations             = 30
Number of equality constraint evaluations            = 210
Number of inequality constraint evaluations          = 0
Number of equality constraint Jacobian evaluations   = 30
Number of inequality constraint Jacobian evaluations = 0
Number of Lagrangian Hessian evaluations             = 29
Total CPU secs in IPOPT (w/o function evaluations)   =      0.044
Total CPU secs in NLP function evaluations           =      1.230

EXIT: Optimal Solution Found.
